words_hard_train/8638.qaiger
aag 56 15 0 1 41
2
4
8
12
14
20
24
32
40
44
46
58
66
80
90
113
6 2 4
10 6 8
16 12 14
18 10 16
22 18 20
26 23 25
28 22 24
30 27 29
34 31 32
36 30 33
38 35 37
42 41 8
48 44 47
50 45 46
52 49 51
54 53 29
56 43 55
60 59 12
62 58 13
64 61 63
68 4 66
70 5 67
72 69 71
74 64 73
76 19 21
78 77 23
82 78 81
84 74 83
86 56 84
88 38 86
92 90 3
94 93 15
96 91 2
98 40 9
100 97 99
102 94 100
104 79 80
106 52 28
108 105 107
110 102 108
112 88 110
i0 1 x2[4]
i1 1 x2[6]
i2 1 x2[3]
i3 1 x2[5]
i4 1 x2[7]
i5 1 x2[2]
i6 1 x2[1]
i7 2 y1[6]
i8 2 y1[4]
i9 1 x2[0]
i10 2 y1[7]
i11 2 y1[2]
i12 2 y1[1]
i13 2 y1[5]
i14 2 y1[3]
o0 bool[0]
c
simplified
  !=
    or
      1
      2 y1
    add
      1
      reverse
        1 x2
