words_hard_train/8638.qaiger.qdimacs
p cnf 56 124
a 1 2 4 6 7 10 12 22 0
e 3 5 8 9 11 13 14 15 16 17 18 19 20 21 23 24 25 26 27 28 29 30 31 32 33 34 35 36 37 38 39 40 41 42 43 44 45 46 47 48 49 50 51 52 53 54 55 56 0
-1 -2 3 0
1 -3 0
2 -3 0
-3 -4 5 0
3 -5 0
4 -5 0
-6 -7 8 0
6 -8 0
7 -8 0
-5 -8 9 0
5 -9 0
8 -9 0
-9 -10 11 0
9 -11 0
10 -11 0
11 12 13 0
-11 -13 0
-12 -13 0
-11 -12 14 0
11 -14 0
12 -14 0
13 14 15 0
-13 -15 0
-14 -15 0
15 -16 17 0
-15 -17 0
16 -17 0
-15 16 18 0
15 -18 0
-16 -18 0
17 18 19 0
-17 -19 0
-18 -19 0
20 -4 21 0
-20 -21 0
4 -21 0
-22 23 24 0
22 -24 0
-23 -24 0
22 -23 25 0
-22 -25 0
23 -25 0
24 25 26 0
-24 -26 0
-25 -26 0
26 14 27 0
-26 -27 0
-14 -27 0
21 27 28 0
-21 -28 0
-27 -28 0
29 -6 30 0
-29 -30 0
6 -30 0
-29 6 31 0
29 -31 0
-6 -31 0
30 31 32 0
-30 -32 0
-31 -32 0
-2 -33 34 0
2 -34 0
33 -34 0
2 33 35 0
-2 -35 0
-33 -35 0
34 35 36 0
-34 -36 0
-35 -36 0
-32 36 37 0
32 -37 0
-36 -37 0
9 10 38 0
-9 -38 0
-10 -38 0
38 11 39 0
-38 -39 0
-11 -39 0
-39 40 41 0
39 -41 0
-40 -41 0
-37 41 42 0
37 -42 0
-41 -42 0
-28 -42 43 0
28 -43 0
42 -43 0
-19 -43 44 0
19 -44 0
43 -44 0
-45 1 46 0
45 -46 0
-1 -46 0
46 7 47 0
-46 -47 0
-7 -47 0
45 -1 48 0
-45 -48 0
1 -48 0
-20 4 49 0
20 -49 0
-4 -49 0
48 49 50 0
-48 -50 0
-49 -50 0
-47 -50 51 0
47 -51 0
50 -51 0
39 -40 52 0
-39 -52 0
40 -52 0
-26 -14 53 0
26 -53 0
14 -53 0
52 53 54 0
-52 -54 0
-53 -54 0
-51 -54 55 0
51 -55 0
54 -55 0
-44 -55 56 0
44 -56 0
55 -56 0
-56 0
